he-ming-ke,302456
farfromu,2385
songqingyou,154
freddysheng,1361
23333-85-6,277
li-xu-ran-94,149984
fu-lan-ke-yang,39009
bi-de-yun-qing,6600
wang-xiao-gua-32,826
jin-wei-37,27060
he-ping-52-1,92
hua-zi-li,1063
feng-huang-97,765
12132546564,39
drlixy,430
Madrabbit,6614
yuanxiafeel,21026
feng-nu-66,22
ccat,411106
garrison_qs,1397
zhang-bi-chi-liyi,6082
jian-kang-zhong-guo,7896
meng-meng-14-74,9292
qiancai_saidong,62233
Harrison-H,593
yoggcn,60543
jimmy936,1564
dancinglily,153
zuo-gen-yong,48
siran-yang,730
liuyefeishuang,17
intOscar,103
zhang-peng-25-35,55
levin_ai,45
slayer-54,221
smart-66,10
tim57414473,51786
stevenc214,74647
han-dong-ran,109895
wen-zhe-gu-48,112
larry-wang-46,47642
philosanitas,3701
Padmasambhava,183515
wang-nathan-45,4224
dlightwing,267352
splitter,202174
fang-zhi-xiong-3,20917
learingenglish,100004
LittleBallOfFur,171293
xia-xia-17,136496
zhi-duo-xing-40-85,20167
reseted1509021923207,21514
kellyweaver,71295
dan-ni-skrein,2
hitomi-323,1356
meilleure,381
seanzheng-44,215
healthaffairs,181
fang-er-er,775
Ilovezhangjianghao,75
xiangx,8784
yi-an-ji,615
neg_entropy,38853
feifanshuo,37795
jiang-nan-fen-qing,26816
tian-zhong-pu-ni-hui,4703
li-yin-he-25,182536
luzhu-80,20
hai-ma-94,500
haoyoucainet,47945
mcmc-von-mises,49
yao-xie-zhao-pin,110
li-lu-30-32-53,113
mi-duo-duo-30-26,11824
peterllll,2994
liu-man-qing-55,229
kai-feng,16333
li-yinuo,19421
wan-jin-you-39,200789
zhou-ding-33,9710
a-ding-cat,21484
ma-qian-zu,456308
siva,35928
junlin_1980,243273
chang-kai-shen-32,161256
wander-hama,2097
doctorwong,36879
wang-tong-xue-15,277
jixun88,636
sheng-shi-48hao-12,41616
xie-ling-jing-23,311
bao-zi-33,1015
melody-lcc,33
fei-meng-80,320
KAI-community,4966
you-yan-she-47,134139
vipzhangxiao,100871
watcheco,57282
liu-ruo-ying-gong-zuo-shi-94,7487
wu-sheng-60-98,14514
he-tao-62-44,55617
eatswan,2
dongtaosheng,44896
shi-guo-jing-qian-wo-huan-yi-ran,533
wang-hui-cheng,9173
liulangdehama,87144
chen-bin-99-5-4,231578
ashenlight,86261
nuan-bing-ge-zhu-ren,659
wu-qing-yuan-41-96,200511
yang-fan-81-62-28,88
da-jia-bu-yao-fa-xian-wo,10
li-jing-20-69,80903
leng-zhe,290675
excited-vczh,766602
da-lao-hu-39,901
dou-dou-er-ding,6
wang-rui-en,287530
johnxu,175533
GejunMath,8133
xie-yong-ling-24,10
duan-zhan-nan,3
mileijun,242234
an-jia-men-yuan,123840
wang-ni-ma-94,645944
lizncu131,12
gan-peng-cheng-79,9
r-ji-yang,183
liu-ti-xu,18
hong-hong-38-50,77786
ma-bo-yong,701782
binka,464916
chenghan,287727
gao-ke-69,597022
kaiqu,47298
liu-shui-6,46241
magasa,487477
bo-cai-28-7,435102
BlackCloak,145321
zhu-xuan-86,740666
chen-lin-jue,11
lisongwei,520810
zhouzhao,174604
dong-ji-zai-hang-zhou,599786
zihaolucky,3970
jiaoshoutv,281081
liuniandate,305214
Hail_Hydra,7643
imike,845437
cai-tong,654344
chenbailing,597258
DrHow,408470
yolfilm,799970
linan,434396
zhang-jia-wei,1845563
patrickluo,335011
boxun,380810
kaifulee,1062041
xiaodaoren,396947
cheng-yi-nan,431656
raymond-wang,590175
