ying-xiong-lian-meng-56-33,52221
wh-king,5
ju-ye-zhao,2
qing-shi-yong-zhen-shi-xing-ming,33865
nie-wei-ping-64,20501
gong-zheng-yi-76,80
bangongshixiaoye,13173
lu-bi-43-59,2
zheng-kai-lin-69,2348
wei-xiao-wei-40-56,77
OliverMarsh,6375
hysbz42905,32
jianjianshu,441
wang-shi-jiu-16,228
wang-you-28,85214
sha-bu-la-ji-2-95,300
xia-chu-fang,531342
siyi-zhang-54,304
li-chen-84-7,1078
yan-jing-ya-42,2
wang-song-10-14,2
hudson-shi,221
clvolkov,1073
pfdlw,36148
ding-xiao-wen-18,1219
bi-jing-ya,24
jieducm,54679
lovely-67-3,204
hyaline_17,80
zhang-jing-90-3,64
sa-qu-69,4
fu-li-man-90,4
gao-ying-kai,2556
rob-wen,43324
liuyu-75-13,13
john-yang-46,52
bei-jing-xin-dong-fang-peng-ren-xue-xiao,5393
hqythu,48236
mixi33,149
xuxiaoteng,117925
kkk1233333,37
ha-ha-ha-ha-90-47,9
y-fan-51,4357
tuihu,31523
li-wei-yi-95,169
marvin-liu-90,107
lv-shuang-60-1,362
chen-ze-kun-1-52,12513
cc8128,167
sisyphus-78,4
wang-zheng-88-20,11
wayneology,15
mo-ran-4-66,1
hu-wang-42,31
wang-wen-he-27,122
yifanjing,6335
jiu-shi-zhun,54
faker-23-68,44
MarkII,69
wmh-UpUpUp,21
GFR.E,112
zhang-ai-81,1
susan-82,9
shi-nu-bi-509,60
mather-king,23274
milu-deer-75,3
wang-yi-xin-6-41,4
sisyphus-55,4
diao-si-69-95,1012
ding-zhu-78-90,2
jerry-58-69,4
bei-ou-77-81,4
tu-dou-shi-dan-dan-53,7
zhu-fei-yu-53,14
sss-46-15-78,6
xu-wen-xiu-28,14
liu-shou-shou-36,28
jj-yy-51,19
hui-xiang-jun,312
huangqing,2436
10082,4375
xiaoyu-zhang-61,10
zhang-ming-yun-25,8
ceng-yi-84-15,2
india,55899
mcmc-von-mises,49
ambriel-l,3256
yan-zou-34,12966
klam,4987
gong-chang-cheng-xi,59
luo-min-jie,10209
chen-xian-sheng-75-66,3
pppassion,11
xxx-25-90,53
xie-hong-yi-50,6
guojingz,219
wang-zhuo-qun-40-93,1131
huang-tao-31-51,3
xiang-chuan-zhen-si-47,117
mao-xi-hui-zi,9
veryexcited-18,122
dogsteve,14
halmos-halmos,4
yuhang-liu-34,76943
ceng-jing-dong-fang-you-zhi-wang,5
leo-43-11,5
you-zi-hao-22,3
james-illusion,18
zhangsu-sheng,21
feng-zhi-1-6,22
jiu-zhi-shen-gai-jin,16
wang-rui-38-99,11
liu-ying-bo-10,292
yuan-jun-83-23,4
lao-chen-42,31
young-56-87,3
cao-ru-yi-39-71,3
sdz-63,8
xi-an-lang-ren,5
mo-de-50,85
82664270,4
zhang-chen-6-98,1
wei-lai-8-50,2
peng-cheng-45,99
robin123456,3
gi20bili,25
fu-yun-83,118
han-yu-gang,4
cao-xiao-cao-34,8
tao-tao-49-21,504
su-zhe-98-96,14
hou-jie-15-67,5
a-su-le-51,31
hui-fei-de-yu-56-50,7
hu-zhen-yuan-11,1
tiger-99-59,4
dou-nai-xian-sheng-38,4
lin-hai-song-66,41
changhua-lee,1
liu-yi-ran-29-60-56,21
zhi-nian-59-53-88,1
BonjourWtea,10
zheng-miting,5
xue-xun-99,3
gaanyu,18140
yin-jiao-shou-32,343957
han-di-63,97320
dhchen,79843
yanjingzhaisun,18409
czahie,30
wang-fu-rui,13024
huang-yan-kun-76,4
liu-jin-peng-29,763
richardwayne,65
liu-da-zhu-97,16
zhen-xuan-zhi,2
